NAME : LPS-n9-m360
COMMENT : (Lartu-Peter-Santi Plot, instance 2760 out of 39200. 9 customers.)
TYPE : CVRP
DIMENSION : 9
EDGE_WEIGHT_TYPE : EUC_2D
CAPACITY : 107
NODE_COORD_SECTION
 1 60 77
 2 88 54
 3 58 53
 4 40 97
 5 70 62
 6 53 35
 7 22 39
 8 55 6
 9 30 58
DEMAND_SECTION
1 0
2 67
3 52
4 65
5 78
6 60
7 79
8 57
9 43
DEPOT_SECTION
 1
 -1
EOF
